c File: data_files/evolved_graphs/g0256.col
c
c Auto generated graph
c
p edge 100 1366
e 1 7
e 1 14
e 1 17
e 1 21
e 1 26
e 1 29
e 1 33
e 1 37
e 1 38
e 1 40
e 1 51
e 1 52
e 1 56
e 1 57
e 1 59
e 1 61
e 1 62
e 1 64
e 1 69
e 1 74
e 1 75
e 1 80
e 1 85
e 1 86
e 1 90
e 1 91
e 1 92
e 1 93
e 1 94
e 1 95
e 1 96
e 1 97
e 1 98
e 1 99
e 1 100
e 2 9
e 2 11
e 2 13
e 2 15
e 2 22
e 2 24
e 2 38
e 2 39
e 2 42
e 2 45
e 2 49
e 2 64
e 2 76
e 2 79
e 2 85
e 2 87
e 2 88
e 2 94
e 2 95
e 2 96
e 2 97
e 2 98
e 2 99
e 2 100
e 3 9
e 3 13
e 3 15
e 3 18
e 3 19
e 3 26
e 3 44
e 3 50
e 3 59
e 3 61
e 3 63
e 3 66
e 3 78
e 3 91
e 3 92
e 3 94
e 3 95
e 3 96
e 3 97
e 3 98
e 3 99
e 4 5
e 4 26
e 4 31
e 4 37
e 4 39
e 4 40
e 4 42
e 4 51
e 4 52
e 4 56
e 4 74
e 4 80
e 4 86
e 4 87
e 4 90
e 4 93
e 4 94
e 4 95
e 4 96
e 4 97
e 4 98
e 4 99
e 4 100
e 5 6
e 5 12
e 5 15
e 5 29
e 5 49
e 5 61
e 5 73
e 5 76
e 5 77
e 5 78
e 5 82
e 5 86
e 5 90
e 5 94
e 5 95
e 5 97
e 5 98
e 5 99
e 5 100
e 6 16
e 6 17
e 6 33
e 6 35
e 6 37
e 6 40
e 6 43
e 6 45
e 6 47
e 6 52
e 6 59
e 6 60
e 6 74
e 6 75
e 6 76
e 6 79
e 6 82
e 6 89
e 6 94
e 6 95
e 6 96
e 6 97
e 6 98
e 6 99
e 6 100
e 7 8
e 7 9
e 7 10
e 7 20
e 7 30
e 7 37
e 7 45
e 7 49
e 7 52
e 7 62
e 7 64
e 7 65
e 7 70
e 7 74
e 7 82
e 7 91
e 7 94
e 7 95
e 7 96
e 7 97
e 7 98
e 7 99
e 7 100
e 8 22
e 8 37
e 8 51
e 8 53
e 8 54
e 8 66
e 8 67
e 8 68
e 8 81
e 8 82
e 8 89
e 8 94
e 8 95
e 8 96
e 8 97
e 8 98
e 8 99
e 8 100
e 9 11
e 9 17
e 9 19
e 9 21
e 9 30
e 9 32
e 9 45
e 9 46
e 9 54
e 9 58
e 9 60
e 9 62
e 9 84
e 9 94
e 9 95
e 9 96
e 9 97
e 9 98
e 9 99
e 9 100
e 10 11
e 10 17
e 10 22
e 10 25
e 10 27
e 10 30
e 10 34
e 10 48
e 10 62
e 10 71
e 10 84
e 10 89
e 10 94
e 10 95
e 10 96
e 10 97
e 10 98
e 10 99
e 10 100
e 11 27
e 11 31
e 11 48
e 11 49
e 11 50
e 11 53
e 11 71
e 11 72
e 11 73
e 11 84
e 11 85
e 11 92
e 11 94
e 11 95
e 11 96
e 11 97
e 11 98
e 11 99
e 11 100
e 12 15
e 12 17
e 12 23
e 12 24
e 12 29
e 12 31
e 12 32
e 12 34
e 12 45
e 12 47
e 12 48
e 12 77
e 12 89
e 12 94
e 12 95
e 12 96
e 12 97
e 12 98
e 12 99
e 12 100
e 13 22
e 13 24
e 13 25
e 13 33
e 13 36
e 13 40
e 13 42
e 13 57
e 13 62
e 13 72
e 13 78
e 13 81
e 13 93
e 13 94
e 13 95
e 13 96
e 13 97
e 13 98
e 13 99
e 13 100
e 14 15
e 14 20
e 14 22
e 14 25
e 14 45
e 14 49
e 14 51
e 14 54
e 14 55
e 14 64
e 14 67
e 14 71
e 14 72
e 14 78
e 14 83
e 14 88
e 14 92
e 14 93
e 14 94
e 14 96
e 14 97
e 14 99
e 15 19
e 15 21
e 15 23
e 15 27
e 15 36
e 15 38
e 15 44
e 15 47
e 15 60
e 15 69
e 15 77
e 15 82
e 15 92
e 15 93
e 15 94
e 15 95
e 15 96
e 15 97
e 15 98
e 15 99
e 15 100
e 16 17
e 16 20
e 16 23
e 16 24
e 16 25
e 16 26
e 16 27
e 16 33
e 16 37
e 16 40
e 16 45
e 16 51
e 16 60
e 16 62
e 16 65
e 16 69
e 16 72
e 16 74
e 16 78
e 16 83
e 16 84
e 16 88
e 16 91
e 16 92
e 16 94
e 16 95
e 16 96
e 16 97
e 16 99
e 16 100
e 17 18
e 17 23
e 17 26
e 17 27
e 17 34
e 17 44
e 17 51
e 17 53
e 17 60
e 17 63
e 17 68
e 17 71
e 17 82
e 17 84
e 17 86
e 17 89
e 17 95
e 17 96
e 17 97
e 17 98
e 17 99
e 18 19
e 18 24
e 18 37
e 18 39
e 18 41
e 18 46
e 18 54
e 18 59
e 18 64
e 18 73
e 18 74
e 18 79
e 18 87
e 18 94
e 18 95
e 18 96
e 18 97
e 18 98
e 18 99
e 18 100
e 19 31
e 19 32
e 19 37
e 19 40
e 19 42
e 19 44
e 19 52
e 19 56
e 19 64
e 19 75
e 19 77
e 19 81
e 19 85
e 19 94
e 19 95
e 19 96
e 19 98
e 20 22
e 20 24
e 20 31
e 20 36
e 20 37
e 20 44
e 20 49
e 20 58
e 20 60
e 20 63
e 20 72
e 20 76
e 20 78
e 20 79
e 20 82
e 20 83
e 20 94
e 20 95
e 20 96
e 20 97
e 20 98
e 20 99
e 20 100
e 21 27
e 21 32
e 21 36
e 21 40
e 21 43
e 21 79
e 21 83
e 21 87
e 21 94
e 21 98
e 21 99
e 21 100
e 22 33
e 22 42
e 22 48
e 22 49
e 22 52
e 22 60
e 22 62
e 22 63
e 22 67
e 22 69
e 22 78
e 22 79
e 22 82
e 22 84
e 22 89
e 22 93
e 22 94
e 22 95
e 22 96
e 22 97
e 22 98
e 22 99
e 22 100
e 23 25
e 23 27
e 23 35
e 23 36
e 23 41
e 23 44
e 23 52
e 23 61
e 23 64
e 23 66
e 23 67
e 23 68
e 23 70
e 23 73
e 23 74
e 23 75
e 23 77
e 23 80
e 23 82
e 23 84
e 23 85
e 23 91
e 23 93
e 23 94
e 23 95
e 23 96
e 23 97
e 23 98
e 23 99
e 23 100
e 24 26
e 24 28
e 24 32
e 24 35
e 24 36
e 24 42
e 24 60
e 24 64
e 24 69
e 24 79
e 24 84
e 24 94
e 24 95
e 24 96
e 24 97
e 24 98
e 24 99
e 24 100
e 25 33
e 25 46
e 25 48
e 25 53
e 25 57
e 25 71
e 25 77
e 25 78
e 25 86
e 25 91
e 25 92
e 25 94
e 25 95
e 25 96
e 25 97
e 25 98
e 25 99
e 25 100
e 26 36
e 26 37
e 26 38
e 26 39
e 26 41
e 26 46
e 26 51
e 26 52
e 26 57
e 26 64
e 26 71
e 26 75
e 26 84
e 26 86
e 26 87
e 26 94
e 26 95
e 26 96
e 26 97
e 26 98
e 26 99
e 26 100
e 27 28
e 27 34
e 27 36
e 27 37
e 27 52
e 27 58
e 27 62
e 27 76
e 27 93
e 27 94
e 27 95
e 27 96
e 27 97
e 27 98
e 27 99
e 27 100
e 28 33
e 28 34
e 28 40
e 28 41
e 28 46
e 28 47
e 28 50
e 28 52
e 28 59
e 28 66
e 28 75
e 28 76
e 28 83
e 28 85
e 28 87
e 28 90
e 28 92
e 28 94
e 28 95
e 28 96
e 28 97
e 28 98
e 28 100
e 29 31
e 29 35
e 29 36
e 29 46
e 29 48
e 29 51
e 29 53
e 29 81
e 29 84
e 29 94
e 29 95
e 29 96
e 29 97
e 29 98
e 29 99
e 29 100
e 30 34
e 30 45
e 30 50
e 30 52
e 30 73
e 30 74
e 30 77
e 30 81
e 30 86
e 30 89
e 30 94
e 30 95
e 30 96
e 30 98
e 30 99
e 30 100
e 31 35
e 31 36
e 31 53
e 31 60
e 31 62
e 31 65
e 31 69
e 31 73
e 31 76
e 31 85
e 31 89
e 31 92
e 31 94
e 31 95
e 31 96
e 31 97
e 31 98
e 31 99
e 31 100
e 32 37
e 32 43
e 32 51
e 32 55
e 32 64
e 32 84
e 32 89
e 32 94
e 32 95
e 32 96
e 32 97
e 32 98
e 32 99
e 32 100
e 33 38
e 33 53
e 33 55
e 33 56
e 33 76
e 33 83
e 33 84
e 33 86
e 33 87
e 33 88
e 33 89
e 33 93
e 33 94
e 33 95
e 33 96
e 33 98
e 33 99
e 33 100
e 34 41
e 34 43
e 34 44
e 34 50
e 34 53
e 34 57
e 34 63
e 34 65
e 34 66
e 34 72
e 34 78
e 34 94
e 34 95
e 34 96
e 34 97
e 34 99
e 34 100
e 35 41
e 35 64
e 35 70
e 35 73
e 35 80
e 35 84
e 35 85
e 35 86
e 35 94
e 35 95
e 35 96
e 35 97
e 35 98
e 35 99
e 35 100
e 36 41
e 36 43
e 36 56
e 36 60
e 36 66
e 36 78
e 36 81
e 36 92
e 36 94
e 36 95
e 36 96
e 36 97
e 36 98
e 36 99
e 36 100
e 37 38
e 37 40
e 37 41
e 37 49
e 37 57
e 37 71
e 37 72
e 37 73
e 37 74
e 37 90
e 37 94
e 37 95
e 37 96
e 37 97
e 37 98
e 37 99
e 37 100
e 38 41
e 38 48
e 38 52
e 38 57
e 38 62
e 38 74
e 38 78
e 38 81
e 38 88
e 38 93
e 38 94
e 38 95
e 38 96
e 38 97
e 38 98
e 38 99
e 38 100
e 39 69
e 39 81
e 39 83
e 39 85
e 39 86
e 39 92
e 39 94
e 39 95
e 39 96
e 39 97
e 39 99
e 39 100
e 40 43
e 40 47
e 40 51
e 40 53
e 40 56
e 40 60
e 40 63
e 40 75
e 40 90
e 40 94
e 40 95
e 40 96
e 40 98
e 40 99
e 40 100
e 41 50
e 41 58
e 41 64
e 41 65
e 41 71
e 41 85
e 41 90
e 41 94
e 41 95
e 41 96
e 41 97
e 41 98
e 41 99
e 41 100
e 42 45
e 42 48
e 42 52
e 42 64
e 42 65
e 42 67
e 42 75
e 42 79
e 42 82
e 42 85
e 42 88
e 42 90
e 42 94
e 42 96
e 42 97
e 42 98
e 42 99
e 42 100
e 43 48
e 43 49
e 43 52
e 43 84
e 43 90
e 43 92
e 43 94
e 43 95
e 43 96
e 43 97
e 43 98
e 43 99
e 43 100
e 44 45
e 44 46
e 44 55
e 44 57
e 44 65
e 44 67
e 44 73
e 44 89
e 44 94
e 44 95
e 44 96
e 44 97
e 44 98
e 44 99
e 44 100
e 45 47
e 45 54
e 45 57
e 45 72
e 45 73
e 45 77
e 45 79
e 45 80
e 45 86
e 45 93
e 45 94
e 45 95
e 45 96
e 45 97
e 45 98
e 45 100
e 46 51
e 46 53
e 46 55
e 46 58
e 46 73
e 46 75
e 46 91
e 46 94
e 46 95
e 46 96
e 46 98
e 46 99
e 46 100
e 47 51
e 47 59
e 47 61
e 47 72
e 47 78
e 47 87
e 47 88
e 47 91
e 47 94
e 47 95
e 47 96
e 47 97
e 47 98
e 47 99
e 47 100
e 48 54
e 48 64
e 48 65
e 48 73
e 48 79
e 48 81
e 48 85
e 48 90
e 48 94
e 48 95
e 48 96
e 48 97
e 48 98
e 48 99
e 48 100
e 49 58
e 49 66
e 49 67
e 49 77
e 49 80
e 49 88
e 49 93
e 49 95
e 49 96
e 49 97
e 49 98
e 49 99
e 49 100
e 50 52
e 50 54
e 50 56
e 50 61
e 50 62
e 50 87
e 50 89
e 50 91
e 50 94
e 50 95
e 50 96
e 50 97
e 50 98
e 50 100
e 51 53
e 51 55
e 51 62
e 51 66
e 51 67
e 51 74
e 51 75
e 51 82
e 51 94
e 51 96
e 51 97
e 51 98
e 51 99
e 52 65
e 52 94
e 52 95
e 52 96
e 52 97
e 52 98
e 52 99
e 52 100
e 53 57
e 53 75
e 53 79
e 53 87
e 53 94
e 53 95
e 53 96
e 53 97
e 53 98
e 53 99
e 53 100
e 54 59
e 54 60
e 54 68
e 54 70
e 54 80
e 54 85
e 54 88
e 54 94
e 54 95
e 54 97
e 54 98
e 54 99
e 54 100
e 55 62
e 55 65
e 55 70
e 55 77
e 55 87
e 55 95
e 55 96
e 55 97
e 55 98
e 55 99
e 55 100
e 56 60
e 56 64
e 56 66
e 56 69
e 56 94
e 56 95
e 56 96
e 56 97
e 56 98
e 56 99
e 56 100
e 57 66
e 57 73
e 57 83
e 57 88
e 57 91
e 57 92
e 57 94
e 57 95
e 57 96
e 57 97
e 57 98
e 57 100
e 58 61
e 58 62
e 58 64
e 58 66
e 58 68
e 58 73
e 58 79
e 58 82
e 58 83
e 58 84
e 58 90
e 58 94
e 58 95
e 58 96
e 58 97
e 58 98
e 58 99
e 58 100
e 59 63
e 59 75
e 59 94
e 59 95
e 59 96
e 59 97
e 59 98
e 59 100
e 60 67
e 60 68
e 60 71
e 60 72
e 60 76
e 60 85
e 60 94
e 60 96
e 60 97
e 60 99
e 60 100
e 61 66
e 61 85
e 61 94
e 61 95
e 61 96
e 61 97
e 61 98
e 61 99
e 61 100
e 62 64
e 62 69
e 62 81
e 62 87
e 62 88
e 62 94
e 62 95
e 62 96
e 62 97
e 62 98
e 62 99
e 63 64
e 63 65
e 63 76
e 63 78
e 63 81
e 63 82
e 63 84
e 63 85
e 63 91
e 63 94
e 63 95
e 63 96
e 63 97
e 63 98
e 63 99
e 63 100
e 64 70
e 64 87
e 64 90
e 64 94
e 64 95
e 64 96
e 64 97
e 64 98
e 64 99
e 64 100
e 65 79
e 65 87
e 65 94
e 65 95
e 65 97
e 65 98
e 65 99
e 65 100
e 66 67
e 66 76
e 66 87
e 66 94
e 66 95
e 66 96
e 66 97
e 66 99
e 66 100
e 67 74
e 67 89
e 67 94
e 67 95
e 67 96
e 67 98
e 67 99
e 67 100
e 68 74
e 68 78
e 68 80
e 68 86
e 68 88
e 68 94
e 68 95
e 68 96
e 68 97
e 68 98
e 68 99
e 69 74
e 69 75
e 69 78
e 69 89
e 69 90
e 69 94
e 69 95
e 69 96
e 69 97
e 69 98
e 69 99
e 69 100
e 70 72
e 70 73
e 70 75
e 70 85
e 70 93
e 70 94
e 70 95
e 70 96
e 70 97
e 70 98
e 70 100
e 71 73
e 71 94
e 71 95
e 71 96
e 71 97
e 71 98
e 71 99
e 71 100
e 72 73
e 72 85
e 72 86
e 72 91
e 72 92
e 72 94
e 72 95
e 72 96
e 72 97
e 72 98
e 72 99
e 72 100
e 73 85
e 73 86
e 73 89
e 73 93
e 73 94
e 73 95
e 73 96
e 73 97
e 73 98
e 73 99
e 73 100
e 74 85
e 74 88
e 74 89
e 74 92
e 74 95
e 74 96
e 74 98
e 74 99
e 75 76
e 75 78
e 75 90
e 75 94
e 75 95
e 75 96
e 75 98
e 75 99
e 75 100
e 76 84
e 76 90
e 76 91
e 76 94
e 76 95
e 76 96
e 76 97
e 76 98
e 76 99
e 76 100
e 77 86
e 77 90
e 77 91
e 77 92
e 77 94
e 77 95
e 77 96
e 77 97
e 77 98
e 77 99
e 77 100
e 78 84
e 78 86
e 78 90
e 78 94
e 78 95
e 78 96
e 78 97
e 78 99
e 78 100
e 79 80
e 79 84
e 79 91
e 79 92
e 79 94
e 79 95
e 79 96
e 79 97
e 79 98
e 79 99
e 79 100
e 80 82
e 80 90
e 80 94
e 80 95
e 80 96
e 80 97
e 80 98
e 80 99
e 80 100
e 81 83
e 81 84
e 81 89
e 81 91
e 81 94
e 81 95
e 81 96
e 81 97
e 81 98
e 81 99
e 81 100
e 82 83
e 82 90
e 82 94
e 82 96
e 82 97
e 82 98
e 82 99
e 82 100
e 83 85
e 83 86
e 83 91
e 83 92
e 83 94
e 83 95
e 83 96
e 83 97
e 83 98
e 83 99
e 83 100
e 84 94
e 84 95
e 84 96
e 84 97
e 84 98
e 84 99
e 84 100
e 85 87
e 85 92
e 85 94
e 85 95
e 85 96
e 85 97
e 85 98
e 85 99
e 85 100
e 86 89
e 86 90
e 86 94
e 86 95
e 86 96
e 86 97
e 86 98
e 86 99
e 86 100
e 87 91
e 87 93
e 87 94
e 87 95
e 87 96
e 87 97
e 87 98
e 87 99
e 87 100
e 88 94
e 88 95
e 88 96
e 88 97
e 88 98
e 88 99
e 88 100
e 89 94
e 89 95
e 89 96
e 89 97
e 89 99
e 89 100
e 90 94
e 90 95
e 90 96
e 90 97
e 90 98
e 90 99
e 90 100
e 91 94
e 91 95
e 91 96
e 91 97
e 91 98
e 91 99
e 91 100
e 92 94
e 92 95
e 92 96
e 92 97
e 92 98
e 92 99
e 92 100
e 93 94
e 93 95
e 93 96
e 93 97
e 93 98
e 93 99
e 93 100
e 96 100
e 97 100
e 98 100
